100
128
55
29
19
3
38
41
17
24
17
9
14
20
2
49
10
2
53
1
5
44
55
36
48
8
40
47
60
52
13
59
45
50
4
12
9
2
45
2
42
54
50
62
52
7
54
48
4
55
63
55
12
17
36
24
2
61
58
1
47
22
45
33
1
30
3
43
43
45
27
51
2
40
55
61
11
38
55
37
62
41
8
3
13
12
1
45
43
61
46
43
2
47
62
21
37
59
23
7
40
12